Welcome to the CBC MILP Solver
Version: 2.10.3
Build Date: Dec 15 2019

command line - <USER_HOME>\AppData\Local\Programs\Python\Python312\Lib\site-packages\pulp\apis\../solverdir/cbc/win/i64/cbc.exe cloud_edge_device_dag_scheduling-pulp.mps -mips cloud_edge_device_dag_scheduling-pulp.mst -sec 300.0 -presolve on -gomory on knapsack on probing on -timeMode elapsed -solve -printingOptions all -solution cloud_edge_device_dag_scheduling-pulp.sol (default strategy 1)
At line 2 NAME          MODEL
At line 3 ROWS
At line 513 COLUMNS
At line 4575 RHS
At line 5084 BOUNDS
At line 5252 ENDATA
Problem MODEL has 508 rows, 167 columns and 3748 elements
Coin0008I MODEL read with 0 errors
opening mipstart file .\cloud_edge_device_dag_scheduling-pulp.mst.
MIPStart values read for 167 variables.
seconds was changed from 1e+100 to 300
Option for gomoryCuts changed from ifmove to on
Option for knapsackCuts changed from ifmove to on
Option for timeMode changed from cpu to elapsed
Continuous objective value is 0.098541 - 0.00 seconds
Cgl0003I 3 fixed, 0 tightened bounds, 396 strengthened rows, 1 substitutions
Cgl0003I 0 fixed, 0 tightened bounds, 189 strengthened rows, 1 substitutions
Cgl0003I 0 fixed, 0 tightened bounds, 179 strengthened rows, 0 substitutions
Cgl0003I 0 fixed, 0 tightened bounds, 81 strengthened rows, 0 substitutions
Cgl0003I 0 fixed, 0 tightened bounds, 34 strengthened rows, 0 substitutions
Cgl0003I 0 fixed, 0 tightened bounds, 14 strengthened rows, 0 substitutions
Cgl0003I 0 fixed, 0 tightened bounds, 2 strengthened rows, 0 substitutions
Cgl0003I 0 fixed, 0 tightened bounds, 2 strengthened rows, 0 substitutions
Cgl0003I 0 fixed, 0 tightened bounds, 2 strengthened rows, 0 substitutions
Cgl0003I 0 fixed, 0 tightened bounds, 1 strengthened rows, 0 substitutions
Cgl0004I processed model has 383 rows, 115 columns (104 integer (104 of which binary)) and 3007 elements
Cbc0045I MIPStart provided solution with cost 0.455228
Cbc0012I Integer solution of 0.45522844 found by Reduced search after 0 iterations and 0 nodes (0.03 seconds)
Cbc0038I Full problem 383 rows 115 columns, reduced to 171 rows 50 columns
Cbc0031I 24 added rows had average density of 19.5
Cbc0013I At root node, 24 cuts changed objective from 0.12000207 to 0.24225363 in 100 passes
Cbc0014I Cut generator 0 (Probing) - 1021 row cuts average 10.3 elements, 0 column cuts (0 active)  in 0.041 seconds - new frequency is 1
Cbc0014I Cut generator 1 (Gomory) - 1499 row cuts average 23.6 elements, 0 column cuts (0 active)  in 0.013 seconds - new frequency is 1
Cbc0014I Cut generator 2 (Knapsack) - 0 row cuts average 0.0 elements, 0 column cuts (0 active)  in 0.029 seconds - new frequency is 1000
Cbc0014I Cut generator 3 (Clique) - 0 row cuts average 0.0 elements, 0 column cuts (0 active)  in 0.001 seconds - new frequency is -100
Cbc0014I Cut generator 4 (MixedIntegerRounding2) - 696 row cuts average 3.9 elements, 0 column cuts (0 active)  in 0.047 seconds - new frequency is 1
Cbc0014I Cut generator 5 (FlowCover) - 0 row cuts average 0.0 elements, 0 column cuts (0 active)  in 0.038 seconds - new frequency is -100
Cbc0014I Cut generator 6 (TwoMirCuts) - 927 row cuts average 5.7 elements, 0 column cuts (0 active)  in 0.020 seconds - new frequency is 1
Cbc0010I After 0 nodes, 1 on tree, 0.45522844 best solution, best possible 0.24225363 (0.43 seconds)
Cbc0012I Integer solution of 0.43500325 found by rounding after 6553 iterations and 26 nodes (0.70 seconds)
Cbc0016I Integer solution of 0.43256978 found by strong branching after 6597 iterations and 29 nodes (0.71 seconds)
Cbc0038I Full problem 383 rows 115 columns, reduced to 102 rows 31 columns
Cbc0016I Integer solution of 0.41327064 found by strong branching after 7959 iterations and 54 nodes (0.86 seconds)
Cbc0038I Full problem 383 rows 115 columns, reduced to 150 rows 40 columns
Cbc0016I Integer solution of 0.4042748 found by strong branching after 10975 iterations and 114 nodes (1.15 seconds)
Cbc0004I Integer solution of 0.39074551 found after 11680 iterations and 141 nodes (1.21 seconds)
Cbc0001I Search completed - best objective 0.3907455072611701, took 17221 iterations and 270 nodes (1.65 seconds)
Cbc0032I Strong branching done 2270 times (21988 iterations), fathomed 18 nodes and fixed 19 variables
Cbc0035I Maximum depth 20, 6 variables fixed on reduced cost
Cuts at root node changed objective from 0.120002 to 0.242254
Probing was tried 688 times and created 6187 cuts of which 0 were active after adding rounds of cuts (0.126 seconds)
Gomory was tried 612 times and created 3457 cuts of which 0 were active after adding rounds of cuts (0.055 seconds)
Knapsack was tried 100 times and created 0 cuts of which 0 were active after adding rounds of cuts (0.029 seconds)
Clique was tried 100 times and created 0 cuts of which 0 were active after adding rounds of cuts (0.001 seconds)
MixedIntegerRounding2 was tried 612 times and created 2363 cuts of which 0 were active after adding rounds of cuts (0.172 seconds)
FlowCover was tried 100 times and created 0 cuts of which 0 were active after adding rounds of cuts (0.038 seconds)
TwoMirCuts was tried 612 times and created 2182 cuts of which 0 were active after adding rounds of cuts (0.100 seconds)
ZeroHalf was tried 1 times and created 0 cuts of which 0 were active after adding rounds of cuts (0.001 seconds)
ImplicationCuts was tried 264 times and created 2 cuts of which 0 were active after adding rounds of cuts (0.001 seconds)

Result - Optimal solution found

Objective value:                0.39074551
Enumerated nodes:               270
Total iterations:               17221
Time (CPU seconds):             1.66
Time (Wallclock seconds):       1.66

Option for printingOptions changed from normal to all
Total time (CPU seconds):       1.69   (Wallclock seconds):       1.69
